decision_x1=[0,2];
decision_x2=[0,2];
decision_x3=[0,2];
decision_x4=[0,2];
decision_x5=[0,2];
decision_x6=[0,2];
decision_x7=[0,2];
decision_x8=[0,2];
decision_x9=[0,2];
decision_x10=[0,2];
decision_x11=[0,2];
decision_x12=[0,2];
decision_x13=[0,2];
decision_x14=[0,2];
decision_x15=[0,2];
random_y1=[0,2];
random_y2=[0,2];
random_y3=[0,2];
constraint_x2_x1=[
0,1,9.5|
0,2,6.1|
1,0,10|
1,2,8.5|
2,0,0.29|
2,1,1.9|
];
constraint_x3_x1=[
0,1,6.4|
0,2,2.2|
1,0,2.3|
1,2,9.9|
2,0,1.9|
2,1,7.7|
];
constraint_x5_x1=[
0,1,3.3|
0,2,2.1|
1,0,7.3|
1,2,0.39|
2,0,8.1|
2,1,3.9|
];
constraint_x5_x2=[
0,1,6.9|
0,2,6.6|
1,0,2.8|
1,2,3.4|
2,0,8.4|
2,1,2.8|
];
constraint_x5_x4=[
0,1,9.8|
0,2,9.5|
1,0,10|
1,2,4|
2,0,1.1|
2,1,2.3|
];
constraint_x6_x1=[
0,1,8.9|
0,2,9.6|
1,0,0.44|
1,2,7.3|
2,0,7.3|
2,1,3.2|
];
constraint_x6_x2=[
0,1,7.3|
0,2,8.4|
1,0,1|
1,2,7.6|
2,0,6.8|
2,1,8.7|
];
constraint_x6_x3=[
0,1,6.2|
0,2,2.4|
1,0,0.16|
1,2,1.7|
2,0,1.6|
2,1,3.3|
];
constraint_x6_x4=[
0,1,0.94|
0,2,3.4|
1,0,9.7|
1,2,5.3|
2,0,7.6|
2,1,4.6|
];
constraint_x6_x5=[
0,1,9.3|
0,2,9.5|
1,0,4.7|
1,2,3.5|
2,0,1.7|
2,1,0.37|
];
constraint_x7_x1=[
0,1,9|
0,2,8.3|
1,0,7|
1,2,1.7|
2,0,8.6|
2,1,3|
];
constraint_x7_x6=[
0,1,9.9|
0,2,0.31|
1,0,8.7|
1,2,2.9|
2,0,7.9|
2,1,2|
];
constraint_x8_x1=[
0,1,9.4|
0,2,7.4|
1,0,2.6|
1,2,7|
2,0,0.35|
2,1,6|
];
constraint_x8_x6=[
0,1,6.3|
0,2,2.6|
1,0,5.5|
1,2,9.1|
2,0,9|
2,1,2.2|
];
constraint_x8_x7=[
0,1,2.1|
0,2,1.8|
1,0,1.6|
1,2,3.6|
2,0,2.4|
2,1,6.7|
];
constraint_x9_x4=[
0,1,0.4|
0,2,5.9|
1,0,0.96|
1,2,2.1|
2,0,6.1|
2,1,7.8|
];
constraint_x9_x5=[
0,1,4.1|
0,2,4.5|
1,0,8.5|
1,2,0.73|
2,0,4.6|
2,1,4|
];
constraint_x9_x6=[
0,1,5.1|
0,2,0.22|
1,0,7|
1,2,8.9|
2,0,0.63|
2,1,0.68|
];
constraint_x9_x7=[
0,1,8.1|
0,2,5.3|
1,0,9.4|
1,2,8.1|
2,0,1|
2,1,6.9|
];
constraint_x10_x1=[
0,1,1.8|
0,2,9.5|
1,0,0.22|
1,2,6.4|
2,0,2.7|
2,1,6.8|
];
constraint_x10_x5=[
0,1,2.2|
0,2,8.1|
1,0,1.1|
1,2,6.6|
2,0,6.2|
2,1,7.9|
];
constraint_x10_x6=[
0,1,8.6|
0,2,4.3|
1,0,8.4|
1,2,3.4|
2,0,3.5|
2,1,6.4|
];
constraint_x10_x9=[
0,1,3.7|
0,2,2.4|
1,0,5.3|
1,2,7.4|
2,0,2.9|
2,1,0.048|
];
constraint_x11_x1=[
0,1,7.6|
0,2,1.4|
1,0,8.7|
1,2,8.3|
2,0,9.9|
2,1,1.5|
];
constraint_x11_x2=[
0,1,2.4|
0,2,0.97|
1,0,8.8|
1,2,3.1|
2,0,7.8|
2,1,9.9|
];
constraint_x11_x4=[
0,1,6.6|
0,2,3.5|
1,0,0.8|
1,2,8.8|
2,0,3.6|
2,1,9.8|
];
constraint_x11_x9=[
0,1,9.4|
0,2,8.8|
1,0,5.8|
1,2,1.1|
2,0,6.4|
2,1,8.3|
];
constraint_x11_x10=[
0,1,2.5|
0,2,9.3|
1,0,1.3|
1,2,4.5|
2,0,0.11|
2,1,2.8|
];
constraint_x12_x3=[
0,1,0.096|
0,2,7.6|
1,0,6.2|
1,2,1.4|
2,0,9.5|
2,1,8.1|
];
constraint_x12_x6=[
0,1,8.6|
0,2,9.1|
1,0,6.6|
1,2,9.7|
2,0,8.9|
2,1,7.8|
];
constraint_x12_x7=[
0,1,5.6|
0,2,3.6|
1,0,0.22|
1,2,5.6|
2,0,1.6|
2,1,9.4|
];
constraint_x12_x8=[
0,1,8.2|
0,2,3.3|
1,0,8.1|
1,2,5.7|
2,0,1.4|
2,1,6.5|
];
constraint_x12_x9=[
0,1,7.6|
0,2,1|
1,0,8.6|
1,2,5.7|
2,0,0.11|
2,1,7.2|
];
constraint_x12_x10=[
0,1,3.3|
0,2,6.3|
1,0,7.3|
1,2,9.5|
2,0,8.3|
2,1,7.9|
];
constraint_x12_x11=[
0,1,3.1|
0,2,5.8|
1,0,5.7|
1,2,6.5|
2,0,6.1|
2,1,2.6|
];
constraint_x13_x1=[
0,1,2.2|
0,2,0.63|
1,0,4.3|
1,2,1.9|
2,0,0.58|
2,1,8|
];
constraint_x13_x2=[
0,1,7.9|
0,2,0.72|
1,0,8.8|
1,2,7.6|
2,0,8.1|
2,1,7.6|
];
constraint_x13_x8=[
0,1,2.5|
0,2,1.8|
1,0,6.4|
1,2,6.7|
2,0,0.17|
2,1,1|
];
constraint_x13_x9=[
0,1,7.1|
0,2,1.7|
1,0,9.4|
1,2,5.8|
2,0,6|
2,1,8.3|
];
constraint_x13_x10=[
0,1,4.7|
0,2,6.9|
1,0,3.9|
1,2,2.1|
2,0,1.8|
2,1,7.4|
];
constraint_x13_x11=[
0,1,0.43|
0,2,7.8|
1,0,3.5|
1,2,7.2|
2,0,4.9|
2,1,1.1|
];
constraint_x13_x12=[
0,1,2.7|
0,2,5.5|
1,0,8.1|
1,2,10|
2,0,4.9|
2,1,9.1|
];
constraint_x14_x3=[
0,1,3.1|
0,2,7.7|
1,0,8.9|
1,2,8.9|
2,0,1.2|
2,1,5.1|
];
constraint_x14_x4=[
0,1,4.3|
0,2,7|
1,0,8|
1,2,4.6|
2,0,1.5|
2,1,5.7|
];
constraint_x14_x11=[
0,1,7|
0,2,8.8|
1,0,6.3|
1,2,7.9|
2,0,7.6|
2,1,9.8|
];
constraint_x14_x12=[
0,1,9.4|
0,2,3|
1,0,4.4|
1,2,9.7|
2,0,9.1|
2,1,2.3|
];
constraint_x14_x13=[
0,1,2.3|
0,2,4.5|
1,0,3|
1,2,3.1|
2,0,9.2|
2,1,6.7|
];
constraint_x15_x2=[
0,1,7.2|
0,2,4.2|
1,0,6.2|
1,2,9.9|
2,0,6.9|
2,1,0.92|
];
constraint_x15_x3=[
0,1,3.7|
0,2,1.9|
1,0,5.2|
1,2,6.4|
2,0,9.8|
2,1,3.7|
];
constraint_x15_x8=[
0,1,7.1|
0,2,6|
1,0,7.6|
1,2,9.5|
2,0,5.9|
2,1,7.8|
];
constraint_x15_x9=[
0,1,2.7|
0,2,8|
1,0,8.6|
1,2,1.4|
2,0,5.4|
2,1,9|
];
constraint_x15_x12=[
0,1,9.8|
0,2,0.38|
1,0,10|
1,2,7.3|
2,0,0.44|
2,1,4|
];
constraint_x15_x13=[
0,1,0.55|
0,2,1.2|
1,0,3.7|
1,2,9.5|
2,0,0.082|
2,1,7|
];
constraint_x1_y1=[
0,0,3.4|
0,1,6.1|
0,2,6|
1,0,3.9|
1,1,0.034|
1,2,3.6|
2,0,7.6|
2,1,4.4|
2,2,8.2|
];
constraint_x2_y2=[
0,0,6.8|
0,1,1.4|
0,2,6.9|
1,0,8.2|
1,1,6|
1,2,5.5|
2,0,9.4|
2,1,5.4|
2,2,3|
];
constraint_x3_y3=[
0,0,8.1|
0,1,3.4|
0,2,4.7|
1,0,5.4|
1,1,4.6|
1,2,3.3|
2,0,0.96|
2,1,5.7|
2,2,0.15|
];
initial_distribution_y1=[0.22,0.57,0.21];
initial_distribution_y2=[0.71,0.15,0.14];
initial_distribution_y3=[0.38,0.28,0.35];
transition_y1=[
0.63,0.18,0.19|
0.38,0.51,0.11|
0.41,0.44,0.15|
];
transition_y2=[
0.37,0.34,0.29|
0.44,0.29,0.27|
0.22,0.5,0.28|
];
transition_y3=[
0.27,0.57,0.16|
0.1,0.29,0.61|
0.25,0.13,0.61|
];
